*HEADING
High-Complexity Thermo-Mechanical 3D Grid
*NODE
1, 0.0, 0.0, 0.0
2, 0.0005, 0.0, 0.0
3, 0.0005, 0.0005, 0.0
4, 0.0, 0.0005, 0.0
5, 0.0, 0.0, 0.0002
6, 0.0005, 0.0, 0.0002
7, 0.0005, 0.0005, 0.0002
8, 0.0, 0.0005, 0.0002
*ELEMENT, TYPE=C3D8R, ELSET=STEEL_BODY
1, 1, 2, 3, 4, 5, 6, 7, 8
*MATERIAL, NAME=STEEL_ALLOY
*DENSITY
7850.0
*SPECIFIC HEAT
460.0
*CONDUCTIVITY, TYPE=ISO
45.0
*EXPANSION, ZERO=293.15
1.2e-5
*INITIAL CONDITIONS, TYPE=TEMPERATURE
ALLNODES, 293.15
*BOUNDARY
NSET_XMIN, 1, 1, 1273.15